
******************************************************************************
This program contains Ipopt, a library for large-scale nonlinear optimization.
 Ipopt is released as open source code under the Eclipse Public License (EPL).
         For more information visit https://github.com/coin-or/Ipopt
******************************************************************************

This is Ipopt version 3.13.4, running with linear solver mumps.
NOTE: Other linear solvers might be more efficient (see Ipopt documentation).

Number of nonzeros in equality constraint Jacobian...:        0
Number of nonzeros in inequality constraint Jacobian.:      810
Number of nonzeros in Lagrangian Hessian.............:        0

Total number of variables............................:       18
                     variables with only lower bounds:        0
                variables with lower and upper bounds:       18
                     variables with only upper bounds:        0
Total number of equality constraints.................:        0
Total number of inequality constraints...............:       45
        inequality constraints with only lower bounds:        0
   inequality constraints with lower and upper bounds:        0
        inequality constraints with only upper bounds:       45

iter    objective    inf_pr   inf_du lg(mu)  ||d||  lg(rg) alpha_du alpha_pr  ls
   0 -4.2690715e+03 0.00e+00 1.85e+00   0.0 0.00e+00    -  0.00e+00 0.00e+00   0
   1 -4.2983414e+03 0.00e+00 2.87e+00   0.8 5.99e+00    -  9.91e-01 1.00e+00f  1
   2 -4.5670275e+03 0.00e+00 2.51e+00   0.6 1.72e+02    -  9.92e-01 1.00e+00f  1
   3 -4.6033995e+03 0.00e+00 3.21e+00  -5.4 5.83e+02    -  3.34e-01 1.62e-01f  2
   4 -4.7940012e+03 0.00e+00 3.06e+00  -5.6 4.40e+01    -  7.78e-01 1.00e+00f  1
   5 -4.8699840e+03 0.00e+00 2.28e+00  -1.1 4.66e+01    -  9.87e-01 1.00e+00f  1
   6 -4.9302760e+03 4.83e-01 1.67e+00  -1.6 7.29e+01    -  9.93e-01 4.08e-01f  1
   7 -4.9390324e+03 5.64e-01 1.61e+00  -2.1 9.13e+01    -  9.73e-01 6.45e-02f  1
   8 -4.9811397e+03 5.04e-01 7.99e-01  -2.4 1.55e+02    -  1.00e+00 2.15e-01f  1
   9 -4.9658416e+03 2.20e-01 1.34e+00  -0.7 2.80e+01    -  1.00e+00 6.66e-01h  1
iter    objective    inf_pr   inf_du lg(mu)  ||d||  lg(rg) alpha_du alpha_pr  ls
  10 -4.9862618e+03 7.78e-02 4.11e-01  -1.6 1.40e+01    -  1.00e+00 8.17e-01f  1
  11 -4.9888196e+03 3.38e-03 3.51e-01  -3.0 4.77e+00    -  1.00e+00 9.94e-01f  1
  12 -4.9963483e+03 1.10e-03 9.52e-01  -3.8 1.10e+01    -  1.00e+00 1.00e+00f  1
  13 -5.0204862e+03 3.55e-03 7.07e-01  -4.7 2.01e+01    -  1.00e+00 1.00e+00f  1
  14 -5.0197437e+03 6.26e-02 1.01e+00  -5.5 1.75e+01    -  1.00e+00 1.00e+00h  1
  15 -5.0325484e+03 5.70e-02 3.63e-01  -5.5 1.07e+01    -  1.00e+00 1.00e+00f  1
  16 -5.0347812e+03 1.31e-03 4.28e-01  -6.2 9.62e+00    -  1.00e+00 1.00e+00f  1
  17 -5.0353058e+03 1.15e-02 3.83e-01  -6.5 1.26e+01    -  1.00e+00 1.00e+00f  1
  18 -5.0378732e+03 7.52e-03 1.89e-01  -7.6 7.00e+00    -  1.00e+00 1.00e+00f  1
  19 -5.0398076e+03 1.50e-02 2.27e-01  -8.9 6.87e+00    -  1.00e+00 1.00e+00f  1
iter    objective    inf_pr   inf_du lg(mu)  ||d||  lg(rg) alpha_du alpha_pr  ls
  20 -5.0409120e+03 5.01e-01 2.09e+00  -8.1 1.60e+03    -  1.00e+00 2.24e-02f  3
  21 -4.9689479e+03 5.12e-02 2.93e+00  -8.6 9.62e+01    -  1.00e+00 8.04e-01H  1
  22 -5.0805620e+03 1.17e+00 1.54e+00  -8.7 5.83e+01    -  5.30e-01 1.00e+00f  1
  23 -5.1219882e+03 1.45e-01 1.39e+00  -9.0 3.18e+01    -  1.00e+00 1.00e+00f  1
  24 -5.1259115e+03 1.14e-02 1.22e+00  -9.4 7.24e+01    -  1.00e+00 3.68e-01F  1
  25 -5.1504998e+03 1.16e-01 8.18e-01  -9.1 1.21e+01    -  1.00e+00 1.00e+00f  1
  26 -5.1568277e+03 2.14e-01 1.32e+00  -7.2 2.39e+01    -  2.09e-01 1.00e+00f  1
  27 -5.1700551e+03 9.36e-03 4.33e-01  -5.8 1.19e+01    -  4.30e-04 1.00e+00f  1
  28 -5.1739467e+03 3.07e-02 4.73e-01  -5.7 2.11e+01    -  1.00e+00 1.00e+00f  1
  29 -5.1767776e+03 2.01e-02 2.65e-01  -3.7 1.47e+01    -  1.00e+00 3.86e-01f  1
iter    objective    inf_pr   inf_du lg(mu)  ||d||  lg(rg) alpha_du alpha_pr  ls
  30 -5.1799542e+03 1.21e-01 4.13e-01  -2.7 1.39e+01    -  1.00e+00 1.00e+00f  1
  31 -5.1822685e+03 2.06e-02 2.47e-01  -1.5 1.96e+01    -  1.00e+00 8.37e-01f  1
  32 -5.1552597e+03 0.00e+00 1.20e+00  -2.2 3.57e+01    -  9.88e-01 1.00e+00H  1
  33 -5.1829481e+03 1.02e-01 1.06e-01  -1.6 3.26e+01    -  1.00e+00 1.00e+00f  1
  34 -5.1823788e+03 1.79e-02 3.16e-01  -2.2 6.82e+00    -  1.00e+00 9.98e-01h  1
  35 -5.1830167e+03 1.42e-03 3.77e-01  -3.1 2.88e+00    -  1.00e+00 9.82e-01f  1
  36 -5.1834635e+03 2.23e-03 7.79e-02  -4.6 3.16e+00    -  1.00e+00 1.00e+00f  1
  37 -5.1835175e+03 5.12e-04 1.83e-02  -4.3 1.55e+00    -  1.00e+00 1.00e+00h  1
  38 -5.1834300e+03 3.72e-06 1.21e-01  -5.8 2.60e+00    -  1.00e+00 1.00e+00H  1
  39 -5.1835241e+03 1.29e-04 4.67e-02  -7.1 1.38e+00    -  1.00e+00 9.91e-01f  1
iter    objective    inf_pr   inf_du lg(mu)  ||d||  lg(rg) alpha_du alpha_pr  ls
  40 -5.1835518e+03 2.44e-04 1.95e-02  -8.0 9.13e-01    -  1.00e+00 1.00e+00h  1
  41 -5.1835529e+03 1.11e-05 8.86e-03  -9.9 2.03e-01    -  1.00e+00 1.00e+00h  1
  42 -5.1835544e+03 7.10e-06 8.68e-03 -11.0 1.30e-01    -  1.00e+00 1.00e+00h  1
  43 -5.1835551e+03 1.02e-05 6.17e-03 -11.0 1.23e-01    -  1.00e+00 1.00e+00h  1
  44 -5.1835553e+03 7.12e-06 6.93e-03 -11.0 1.02e-01    -  1.00e+00 1.00e+00h  1
  45 -5.1835555e+03 1.21e-06 3.40e-03 -11.0 9.27e-02    -  1.00e+00 1.00e+00h  1
  46 -5.1835555e+03 1.20e-06 2.93e-03 -11.0 5.06e-02    -  1.00e+00 1.00e+00h  1
  47 -5.1835556e+03 1.02e-07 2.84e-03 -11.0 4.90e-02    -  1.00e+00 1.00e+00h  1
  48 -5.1835556e+03 1.69e-07 6.16e-04 -11.0 2.24e-02    -  1.00e+00 1.00e+00h  1
  49 -5.1835556e+03 2.96e-08 1.10e-04 -11.0 7.45e-03    -  1.00e+00 1.00e+00h  1
iter    objective    inf_pr   inf_du lg(mu)  ||d||  lg(rg) alpha_du alpha_pr  ls
  50 -5.1835556e+03 3.48e-09 3.83e-05 -11.0 3.37e-03    -  1.00e+00 1.00e+00h  1

Number of Iterations....: 50

                                   (scaled)                 (unscaled)
Objective...............:  -5.1835556123372808e+03   -5.1835556123372808e+03
Dual infeasibility......:   3.8327720926694048e-05    3.8327720926694048e-05
Constraint violation....:   3.4840374812483783e-09    3.4840374812483783e-09
Complementarity.........:   9.9999999999999768e-12    9.9999999999999768e-12
Overall NLP error.......:   3.8327720926694048e-05    3.8327720926694048e-05


Number of objective function evaluations             = 62
Number of objective gradient evaluations             = 51
Number of equality constraint evaluations            = 0
Number of inequality constraint evaluations          = 62
Number of equality constraint Jacobian evaluations   = 0
Number of inequality constraint Jacobian evaluations = 51
Number of Lagrangian Hessian evaluations             = 0
Total CPU secs in IPOPT (w/o function evaluations)   =      7.857
Total CPU secs in NLP function evaluations           =      0.794

EXIT: Maximum Number of Iterations Exceeded.
